NAME : sim51.75476.tour
COMMENT : Length = 75476
COMMENT : Found by LKH [Keld Helsgaun] Tue Sep 11 17:53:08 2018
TYPE : TOUR
DIMENSION : 51
TOUR_SECTION
1
10
22
45
37
13
50
7
4
35
39
25
14
44
12
24
43
26
2
29
27
16
31
40
8
34
9
6
11
23
32
41
48
18
17
42
46
47
38
20
15
30
28
49
19
33
5
3
51
21
36
-1
EOF
